(set-logic HORN)
(declare-fun !inv0 (Int Int (Array Int Int) Int (Array Int Int) Int Int ) Bool)
(declare-fun !inv2 (Int Int (Array Int Int) Int (Array Int Int) Int Int ) Bool)
(declare-fun !inv1 (Int Int (Array Int Int) Int (Array Int Int) Int Int ) Bool)
(assert (forall ((N@0 Int)(k@0 Int)(a@0 (Array Int Int))(.a!size@0 Int)(b@0 (Array Int Int))(j@0 Int)(i@1 Int)) (=> (and (> |N@0| 0) (= |k@0| 0) (= |.a!size@0| (+ |N@0| 1)) (= |i@1| 0)) (!inv0 |N@0| |k@0| |a@0| |.a!size@0| |b@0| |j@0| |i@1|))))
(assert (forall ((N@0 Int)(k@0 Int)(a@0 (Array Int Int))(.a!size@0 Int)(b@0 (Array Int Int))(j@0 Int)(i@0 Int)(i@1 Int)) (=> (and (!inv0 |N@0| |k@0| |a@0| |.a!size@0| |b@0| |j@0| |i@0|) (not (< |i@0| |N@0|)) (= |i@1| 0)) (!inv1 |N@0| |k@0| |a@0| |.a!size@0| |b@0| |j@0| |i@1|))))
(assert (forall ((N@0 Int)(k@0 Int)(a@0 (Array Int Int))(.a!size@0 Int)(b@0 (Array Int Int))(j@0 Int)(i@0 Int)(b@1 (Array Int Int))(i@1 Int)) (=> (and (!inv1 |N@0| |k@0| |a@0| |.a!size@0| |b@0| |j@0| |i@0|) (< |i@0| |N@0|) (= |b@1| (store |b@0| |i@0| (- (select |a@0| |i@0|) |j@0|))) (= |i@1| (+ |i@0| 1))) (!inv1 |N@0| |k@0| |a@0| |.a!size@0| |b@1| |j@0| |i@1|))))
(assert (forall ((N@0 Int)(k@0 Int)(a@0 (Array Int Int))(.a!size@0 Int)(b@0 (Array Int Int))(j@0 Int)(i@0 Int)(i@1 Int)) (=> (and (!inv1 |N@0| |k@0| |a@0| |.a!size@0| |b@0| |j@0| |i@0|) (not (< |i@0| |N@0|)) (= |i@1| 0)) (!inv2 |N@0| |k@0| |a@0| |.a!size@0| |b@0| |j@0| |i@1|))))
(assert (forall ((N@0 Int)(k@0 Int)(a@0 (Array Int Int))(.a!size@0 Int)(b@0 (Array Int Int))(j@0 Int)(i@0 Int)(k@1 Int)(i@1 Int)) (=> (and (!inv2 |N@0| |k@0| |a@0| |.a!size@0| |b@0| |j@0| |i@0|) (< |i@0| |N@0|) (= |k@1| (+ (+ |k@0| (select |b@0| |i@0|)) |i@0|)) (= |i@1| (+ |i@0| 1))) (!inv2 |N@0| |k@1| |a@0| |.a!size@0| |b@0| |j@0| |i@1|))))
(assert (forall ((N@0 Int)(k@0 Int)(a@0 (Array Int Int))(.a!size@0 Int)(b@0 (Array Int Int))(j@0 Int)(i@0 Int)) (=> (and (!inv2 |N@0| |k@0| |a@0| |.a!size@0| |b@0| |j@0| |i@0|) (not (< |i@0| |N@0|)) (not (>= |k@0| 0))) false)))
(assert (forall ((N@0 Int)(k@0 Int)(a@0 (Array Int Int))(.a!size@0 Int)(b@0 (Array Int Int))(j@0 Int)(i@0 Int)(i@1 Int)) (=> (and (!inv0 |N@0| |k@0| |a@0| |.a!size@0| |b@0| |j@0| |i@0|) (= |i@1| (+ |i@0| 1)) (< |i@0| |N@0|) (not (> |j@0| (select |a@0| |i@0|)))) (!inv0 |N@0| |k@0| |a@0| |.a!size@0| |b@0| |j@0| |i@1|))))
(assert (forall ((N@0 Int)(k@0 Int)(a@0 (Array Int Int))(.a!size@0 Int)(b@0 (Array Int Int))(j@0 Int)(i@0 Int)(i@1 Int)(j@1 Int)) (=> (and (!inv0 |N@0| |k@0| |a@0| |.a!size@0| |b@0| |j@1| |i@0|) (= |i@1| (+ |i@0| 1)) (< |i@0| |N@0|) (> |j@1| (select |a@0| |i@0|)) (= |j@0| (select |a@0| |i@0|))) (!inv0 |N@0| |k@0| |a@0| |.a!size@0| |b@0| |j@0| |i@1|))))
(check-sat)